1265
1   1   42   98   0 97 37 100 85 99 96 0
1   2   70   93   0 61 16 86 44 91 2 0
1   3   72   90   0 73 56 67 39 4 0
1   4   69   95   0 26 12 77 3 79 40 0
1   5   14   26   0 87 0
1   6   90   98   0 68 29 78 81 33 50 0
1   7   93   100  0 74 75 22 15 43 38 14 42 0
1   8   140  98   0 1 30 71 65 34 54 0
2   1   84   96   0 70 32 20 66 35 9 51 0
2   2   65   96   0 94 59 5 60 18 0
2   3   72   90   0 69 28 72 21 58 53 0
2   4   92   96   0 10 62 11 47 36 46 82 0
2   5   80   96   0 31 19 49 64 63 90 0
2   6   131  95   0 52 89 57 41 23 25 55 24 80 76 0
2   7   70   96   0 6 93 98 92 95 13 27 0
2   8   81   95   0 83 84 17 45 8 48 7 88 0